
Gurobi 9.1.2 (win64) logging started Mon Dec  6 23:02:16 2021

Gurobi Optimizer version 9.1.2 build v9.1.2rc0 (win64)
Thread count: 8 physical cores, 8 logical processors, using up to 8 threads
Optimize a model with 1 rows, 457 columns and 456 nonzeros
Model fingerprint: 0x7a465452
Variable types: 1 continuous, 456 integer (456 binary)
Coefficient statistics:
  Matrix range     [1e+00, 1e+01]
  Objective range  [1e+00, 1e+00]
  Bounds range     [2e+02, 2e+02]
  RHS range        [1e+01, 1e+01]

Gurobi 9.1.2 (win64) logging started Mon Dec  6 23:15:43 2021

Gurobi Optimizer version 9.1.2 build v9.1.2rc0 (win64)
Thread count: 8 physical cores, 8 logical processors, using up to 8 threads
Optimize a model with 1 rows, 457 columns and 456 nonzeros
Model fingerprint: 0x7a465452
Variable types: 1 continuous, 456 integer (456 binary)
Coefficient statistics:
  Matrix range     [1e+00, 1e+01]
  Objective range  [1e+00, 1e+00]
  Bounds range     [2e+02, 2e+02]
  RHS range        [1e+01, 1e+01]
Presolve time: 0.00s
Presolved: 1 rows, 457 columns, 456 nonzeros
Variable types: 1 continuous, 456 integer (456 binary)

Root simplex log...

Iteration    Objective       Primal Inf.    Dual Inf.      Time
       0   -2.1609706e+02   2.966043e-01   0.000000e+00     29s
       4   -2.1609706e+02   0.000000e+00   0.000000e+00     29s

Root relaxation: objective -2.160971e+02, 4 iterations, 0.00 seconds

    Nodes    |    Current Node    |     Objective Bounds      |     Work
 Expl Unexpl |  Obj  Depth IntInf | Incumbent    BestBd   Gap | It/Node Time

     0     0 -166.76328    0    2          - -166.76328      -     -   41s
H    0     0                       0.9750610 -166.76328      -     -   47s
H    0     0                       0.9747834 -166.76328      -     -  108s
     0     0 -166.76328    0    2    0.97478 -166.76328      -     -  149s
     0     0 -166.76328    0    2    0.97478 -166.76328      -     -  161s
     0     0 -104.80550    0    9    0.97478 -104.80550      -     -  165s
     0     0 -104.80550    0    9    0.97478 -104.80550      -     -  197s
     0     0 -104.80550    0    9    0.97478 -104.80550      -     -  201s
     0     0 -104.80550    0    9    0.97478 -104.80550      -     -  208s
     0     0 -104.80550    0    9    0.97478 -104.80550      -     -  214s
     0     0 -104.80550    0    9    0.97478 -104.80550      -     -  219s
     0     0 -104.80550    0    9    0.97478 -104.80550      -     -  229s
     0     0  -99.56345    0    9    0.97478  -99.56345      -     -  229s
     0     0  -99.56345    0    9    0.97478  -99.56345      -     -  250s
     0     0  -99.56345    0    9    0.97478  -99.56345      -     -  255s
     0     0  -99.56345    0    9    0.97478  -99.56345      -     -  265s
H    0     0                       0.9521774  -99.56345      -     -  270s
H    0     0                       0.9520925  -99.56345      -     -  285s
     0     0  -96.25868    0    9    0.95209  -96.25868      -     -  285s
     0     0  -94.33062    0    7    0.95209  -94.33062      -     -  285s
     0     0  -94.33062    0    7    0.95209  -94.33062      -     -  298s
     0     0  -94.33062    0    7    0.95209  -94.33062      -     -  312s
     0     0  -93.28461    0    9    0.95209  -93.28461  9898%     -  319s
     0     0  -93.28461    0    9    0.95209  -93.28461  9898%     -  326s
     0     0  -93.28461    0    9    0.95209  -93.28461  9898%     -  331s
     0     0  -93.28461    0    9    0.95209  -93.28461  9898%     -  335s
     0     0  -93.28461    0    9    0.95209  -93.28461  9898%     -  340s
     0     0  -93.28461    0    9    0.95209  -93.28461  9898%     -  353s
     0     0  -93.28461    0    9    0.95209  -93.28461  9898%     -  359s
     0     0  -93.28461    0    9    0.95209  -93.28461  9898%     -  373s
     0     0  -93.28461    0    9    0.95209  -93.28461  9898%     -  378s
     0     0  -93.28461    0    9    0.95209  -93.28461  9898%     -  385s
     0     0  -93.28461    0    9    0.95209  -93.28461  9898%     -  395s
     0     0  -93.28461    0    9    0.95209  -93.28461  9898%     -  403s
     0     0  -93.28461    0    9    0.95209  -93.28461  9898%     -  409s
     0     0  -93.28461    0    9    0.95209  -93.28461  9898%     -  416s
     0     0  -93.28461    0    9    0.95209  -93.28461  9898%     -  423s
     0     2  -86.57376    0    9    0.95209  -86.57376  9193%     -  460s
    29    24  -21.75016    5    4    0.95209  -46.99492  5036%   7.1  467s
    65    43   -4.44818    9    4    0.95209  -46.99492  5036%   5.3  508s
*   81    49              10       0.9453506  -46.99492  5071%   4.8  572s
   179   115   -3.57668   17    8    0.94535  -40.72982  4408%   4.3  690s
   392   223  -37.28979    8   10    0.94535  -37.77465  4096%   3.9  858s
   572   361  -21.83898   29    7    0.94535  -37.49313  4066%   3.9  955s
   806   627   -9.35690   42    4    0.94535  -37.49313  4066%   3.7 1061s
   974   774   -7.06946   63    4    0.94535  -37.49313  4066%   3.5 1103s
  1174   957   -5.08536   88    4    0.94535  -37.07875  4022%   3.4 1174s
  1414  1103   -3.36034  103    3    0.94535  -35.98670  3907%   3.3 1280s
  1703  1181  -14.48602   36    9    0.94535  -35.55142  3861%   3.2 1468s
  1705  1182  -18.07337   15    9    0.94535  -35.55142  3861%   3.2 1510s
  1706  1183   -2.89627   58    8    0.94535  -35.55142  3861%   3.2 1608s
  1708  1184   -3.53333   96    9    0.94535  -35.55142  3861%   3.2 1651s
  1710  1186  -12.08489    7   11    0.94535  -35.55142  3861%   3.2 1693s
  1712  1187  -24.93748   14   13    0.94535  -35.55142  3861%   3.1 1734s
  1716  1190   -2.66161  105   12    0.94535  -35.55142  3861%   3.1 1816s
  1751  1209  -35.55142   21   15    0.94535  -35.55142  3861%   3.4 1831s
  1807  1237  -30.85017   24   14    0.94535  -35.55142  3861%   3.4 1846s
  1840  1234     cutoff   26         0.94535  -35.55142  3861%   3.5 1876s
  1886  1247  -24.54827   30    5    0.94535  -35.55142  3861%   3.5 1987s
  1974  1263     cutoff   35         0.94535  -35.55142  3861%   3.4 2138s
  1980  1262  -28.40821   24    7    0.94535  -35.55142  3861%   3.4 2171s
  1998  1283  -17.60996   36    2    0.94535  -35.55142  3861%   3.4 2179s
  2062  1307   -7.86223   40    -    0.94535  -35.55142  3861%   3.4 2276s
  2134  1324  -18.39698   45    4    0.94535  -35.55142  3861%   3.4 2345s
  2235  1368    0.90248   47    2    0.94535  -35.55142  3861%   3.4 2450s
  2326  1421   -5.63695   56    3    0.94535  -35.55142  3861%   3.4 2477s
  2454  1479   -2.29618   64    -    0.94535  -35.55142  3861%   3.4 2584s
  2606  1523   -0.37728   71    -    0.94535  -32.17051  3503%   3.5 2671s
  2769  1573   -0.06642   75    3    0.94535  -30.15466  3290%   3.6 2802s
  2931  1640     cutoff   80         0.94535  -29.68186  3240%   3.6 2926s
  3116  1739     cutoff   24         0.94535  -29.41180  3211%   3.6 3054s
  3347  1788   -1.57048   52    2    0.94535  -28.58912  3124%   3.7 3184s
  3536  1928     cutoff   53         0.94535  -28.34942  3099%   3.7 3335s
  3791  2014   -4.03811   43    -    0.94535  -27.75204  3036%   3.7 3494s
  4013  2093   -0.24992   59    2    0.94535  -27.59436  3019%   3.7 3570s
  4236  2125     cutoff   51         0.94535  -26.91546  2947%   3.7 3673s
  4415  2205  -17.16447   37    3    0.94535  -26.57198  2911%   3.8 3812s
  4579  2304   -6.46513   50    2    0.94535  -26.02128  2853%   3.8 3865s
  4790  2412    0.06169   65    -    0.94535  -25.97262  2847%   3.8 3936s
  4992  2501     cutoff   43         0.94535  -25.72581  2821%   3.8 4054s
  5204  2621   -5.01307   49    2    0.94535  -25.51237  2799%   3.8 4179s
  5416  2731   -1.69084   68    2    0.94535  -25.03388  2748%   3.8 4234s
  5516  2740   -3.28221  101   19    0.94535  -25.00069  2745%   3.8 4271s
  5582  2828    0.35799   71    2    0.94535  -24.98572  2743%   3.8 4308s
  5789  2906   -3.93739   33    2    0.94535  -24.94196  2738%   3.8 4457s
  5963  3039   -2.38427   37    4    0.94535  -24.52579  2694%   3.9 4652s
  6165  3140   -0.39405   44    -    0.94535  -24.23690  2664%   3.9 4840s
  6329  3273     cutoff   44         0.94535  -24.10059  2649%   3.9 4951s
  6532  3445  -17.65075   41   10    0.94535  -24.10059  2649%   3.9 5118s
  6733  3560  -14.69387   70    9    0.94535  -24.00149  2639%   3.9 5215s
